/*********************************************
    * Lab01 - FCR
    * Author: Coso
    * Creation Date: Mar, 2019
    *********************************************/
instance_name = "small_instance_18_FCR";

d = 2;
r = 3;

SCj = [150 152];
Dk = [37 100 86];

Cjk = [[36 78 54]
 [47 35 67]];
Fjk = [[490 595 506]
 [499 650 488]];
